n = 28;
k = 2;
roles = [
{f, g},
{d, f},
{g, d},
{m, f},
{m, f},
{g, m},
{m, f},
{f, d},
{g, f},
{g, m},
{f, m},
{g, d},
{m, d},
{f, m},
{d, m},
{f, g},
{d, m},
{g, f},
{g, d},
{m, g},
{g, d},
{m, d},
{f, d},
{g, m},
{g, m},
{m, g},
{m, f},
{g, m}
];
num_pairs = 3;
player1 = [10, 6, 7];
player2 = [11, 3, 25];
